SDVRP instances/custom_instances/p10_24_splitx10_0.vrp
NAME:p10_24_splitx10_
BEST_KNOWN: 0
COMMENT: 0
DIMENSION: 942
CAPACITY: 2000
EDGE_WEIGHT_FORMAT: FUNCTION
EDGE_WEIGHT_TYPE: EXACT_2D
NODE_COORD_SECTION
1 0.00000 0.00000
2 39 50
3 39 50
4 39 50
5 39 50
6 39 50
7 39 50
8 -15 33
9 -15 33
10 -15 33
11 -15 33
12 -15 33
13 -15 33
14 20 26
15 20 26
16 20 26
17 25 45
18 25 45
19 -39 -34
20 -39 -34
21 -39 -34
22 -39 -34
23 34 -32
24 34 -32
25 34 -32
26 34 -32
27 34 -32
28 34 -32
29 16 -7
30 16 -7
31 16 -7
32 16 -7
33 16 -7
34 16 -7
35 16 -7
36 16 -7
37 16 9
38 16 9
39 16 9
40 -33 1
41 -33 1
42 -33 1
43 -33 1
44 -33 1
45 22 30
46 22 30
47 22 30
48 22 30
49 24 9
50 24 9
51 24 9
52 24 9
53 -3 -17
54 -3 -17
55 -3 -17
56 -3 -17
57 -3 -17
58 -3 -17
59 -3 -17
60 11 -43
61 11 -43
62 11 -43
63 11 -43
64 -12 -47
65 -12 -47
66 -12 -47
67 -12 -47
68 -12 -47
69 -12 -47
70 -12 -47
71 -12 -47
72 -21 48
73 -21 48
74 -21 48
75 -21 48
76 23 -8
77 23 -8
78 23 -8
79 23 -8
80 23 -8
81 23 -8
82 23 -8
83 23 -8
84 -2 2
85 -2 2
86 -11 -12
87 -11 -12
88 -11 -12
89 -11 -12
90 -11 -12
91 -25 39
92 -25 39
93 -25 39
94 -25 39
95 -25 39
96 25 -22
97 25 -22
98 46 35
99 46 35
100 46 35
101 46 35
102 46 35
103 46 35
104 46 35
105 46 35
106 -44 32
107 -44 32
108 -44 32
109 -44 32
110 -39 25
111 -39 25
112 33 -14
113 33 -14
114 33 -14
115 33 -14
116 33 -14
117 33 -14
118 33 -14
119 -26 41
120 -26 41
121 -49 5
122 -49 5
123 -49 5
124 -49 5
125 -42 21
126 -42 21
127 -42 21
128 -42 21
129 -42 21
130 -14 -31
131 -14 -31
132 -14 -31
133 -14 -31
134 -14 -31
135 -14 -31
136 -14 -31
137 -14 -31
138 -31 1
139 -31 1
140 -31 1
141 43 -31
142 43 -31
143 43 -31
144 43 -31
145 -42 19
146 -42 19
147 -42 19
148 -42 19
149 -42 19
150 -42 19
151 -42 19
152 25 -33
153 25 -33
154 25 -33
155 25 -33
156 25 -33
157 8 35
158 8 35
159 8 35
160 8 35
161 21 28
162 21 28
163 -16 15
164 -16 15
165 -16 15
166 -16 15
167 -16 15
168 -36 49
169 -36 49
170 -36 49
171 -36 49
172 -36 49
173 38 -24
174 38 -24
175 38 -24
176 38 -24
177 38 -24
178 38 -24
179 38 -24
180 38 -24
181 33 19
182 33 19
183 33 19
184 15 -12
185 15 -12
186 15 -12
187 15 -12
188 15 -12
189 15 -12
190 15 -12
191 15 -12
192 31 23
193 31 23
194 3 -16
195 3 -16
196 3 -16
197 3 -16
198 3 -16
199 3 -16
200 3 -16
201 19 -5
202 19 -5
203 19 -5
204 19 -5
205 19 -5
206 -7 -41
207 -7 -41
208 -7 -41
209 29 33
210 29 33
211 29 33
212 29 33
213 29 33
214 29 33
215 29 33
216 11 -33
217 11 -33
218 11 -33
219 11 -33
220 11 -33
221 11 -33
222 14 -30
223 14 -30
224 14 -30
225 14 -30
226 14 -30
227 -20 -19
228 -20 -19
229 2 7
230 2 7
231 2 7
232 2 7
233 -1 -32
234 -1 -32
235 -1 -32
236 -1 -32
237 -1 -32
238 -41 36
239 -41 36
240 -41 36
241 4 8
242 4 8
243 4 8
244 4 8
245 4 8
246 4 8
247 -23 41
248 -23 41
249 -23 41
250 -23 41
251 -23 41
252 44 -25
253 44 -25
254 6 -35
255 6 -35
256 6 -35
257 50 -37
258 50 -37
259 50 -37
260 13 24
261 13 24
262 13 24
263 13 24
264 13 24
265 13 24
266 -48 34
267 -48 34
268 -48 34
269 -48 34
270 -48 34
271 11 28
272 11 28
273 11 28
274 -5 -2
275 -5 -2
276 -5 -2
277 -5 -2
278 -5 -2
279 -5 -2
280 3 -16
281 3 -16
282 3 -16
283 3 -16
284 -45 -50
285 -45 -50
286 -45 -50
287 -4 9
288 -4 9
289 -4 9
290 -4 9
291 -4 9
292 -4 9
293 -4 9
294 4 -37
295 4 -37
296 4 -37
297 4 -37
298 4 -37
299 4 -37
300 47 9
301 47 9
302 47 9
303 47 9
304 47 9
305 47 9
306 47 9
307 47 9
308 42 -19
309 42 -19
310 42 -19
311 42 -19
312 42 -19
313 42 -19
314 42 -19
315 -1 -18
316 -1 -18
317 -1 -18
318 -1 -18
319 -1 -18
320 -1 -18
321 -1 -18
322 20 -38
323 20 -38
324 20 -38
325 20 -38
326 20 -38
327 20 -38
328 -9 -7
329 -9 -7
330 -9 -7
331 -9 -7
332 -9 -7
333 14 -14
334 14 -14
335 14 -14
336 -40 43
337 -40 43
338 -40 43
339 -40 43
340 2 -44
341 2 -44
342 2 -44
343 2 -44
344 2 -44
345 2 -44
346 24 -34
347 24 -34
348 24 -34
349 24 -34
350 24 -34
351 24 -34
352 24 -34
353 -21 -19
354 -21 -19
355 -21 -19
356 -21 -19
357 24 29
358 24 29
359 24 29
360 24 29
361 24 29
362 47 38
363 47 38
364 47 38
365 47 38
366 47 38
367 20 -14
368 20 -14
369 20 -14
370 -11 36
371 -11 36
372 -11 36
373 -11 36
374 -11 36
375 -11 36
376 -11 36
377 -11 36
378 -2 -18
379 -2 -18
380 -2 -18
381 -2 -18
382 -2 -18
383 -2 -18
384 -2 -18
385 -29 -10
386 -29 -10
387 -29 -10
388 -29 -10
389 -29 -10
390 -29 -10
391 -46 29
392 -46 29
393 -46 29
394 -46 29
395 -42 5
396 -42 5
397 -42 5
398 -42 5
399 -42 5
400 -42 5
401 15 -34
402 15 -34
403 6 39
404 6 39
405 6 39
406 6 39
407 25 -39
408 25 -39
409 25 -39
410 25 -39
411 20 15
412 20 15
413 20 15
414 20 15
415 20 15
416 20 15
417 -9 4
418 -9 4
419 -9 4
420 -9 4
421 -9 4
422 -9 4
423 -9 22
424 -9 22
425 -9 22
426 -11 31
427 -11 31
428 -11 31
429 -11 31
430 -11 31
431 -11 31
432 11 41
433 11 41
434 11 41
435 -5 27
436 -5 27
437 -5 27
438 -5 27
439 -5 27
440 -5 27
441 26 50
442 26 50
443 26 50
444 26 50
445 26 50
446 -1 -1
447 -1 -1
448 -1 -1
449 -1 -1
450 25 1
451 25 1
452 25 1
453 25 1
454 -2 41
455 -2 41
456 -2 41
457 -2 41
458 -2 41
459 -2 41
460 -39 -46
461 -39 -46
462 -39 -46
463 -39 -46
464 -39 -46
465 -39 -46
466 -13 12
467 -13 12
468 -13 12
469 -13 12
470 -13 12
471 3 21
472 3 21
473 -44 -31
474 -44 -31
475 -44 -31
476 -44 -31
477 3 -43
478 3 -43
479 3 -43
480 3 -43
481 -3 -34
482 -3 -34
483 -3 -34
484 -48 9
485 -48 9
486 -48 9
487 -48 9
488 -48 9
489 20 16
490 20 16
491 19 8
492 19 8
493 19 8
494 -25 -6
495 -25 -6
496 -25 -6
497 -25 -6
498 -25 -6
499 22 22
500 22 22
501 22 22
502 22 22
503 22 22
504 22 22
505 22 22
506 -4 47
507 -4 47
508 -4 47
509 -4 47
510 -4 47
511 36 8
512 36 8
513 36 8
514 -15 42
515 -15 42
516 -15 42
517 -15 42
518 -15 42
519 -15 42
520 19 50
521 19 50
522 19 50
523 19 50
524 19 50
525 -39 20
526 -39 20
527 -39 20
528 -39 20
529 -39 20
530 -39 20
531 -39 20
532 -15 -15
533 -15 -15
534 -15 -15
535 -15 -15
536 -15 -15
537 -15 -15
538 -15 -15
539 -21 5
540 -21 5
541 27 -27
542 27 -27
543 27 -27
544 27 -27
545 27 -27
546 -14 32
547 -14 32
548 -14 32
549 -14 32
550 -14 32
551 -14 32
552 -14 32
553 -14 32
554 12 2
555 12 2
556 12 2
557 9 -18
558 9 -18
559 9 -18
560 15 0
561 15 0
562 15 0
563 15 0
564 15 0
565 15 0
566 15 0
567 -1 15
568 -1 15
569 32 22
570 32 22
571 32 22
572 32 22
573 32 22
574 32 22
575 -9 -15
576 -9 -15
577 -9 -15
578 -9 -15
579 -33 44
580 -33 44
581 -2 41
582 -2 41
583 -2 41
584 -2 41
585 -2 41
586 43 -1
587 43 -1
588 -26 48
589 -26 48
590 -26 48
591 -26 48
592 -32 28
593 -32 28
594 -32 28
595 -32 28
596 45 4
597 45 4
598 45 4
599 45 4
600 23 -23
601 23 -23
602 23 -23
603 23 -23
604 23 -23
605 23 -23
606 36 -5
607 36 -5
608 39 43
609 39 43
610 39 43
611 26 -33
612 26 -33
613 26 -33
614 26 -33
615 25 38
616 25 38
617 25 38
618 27 37
619 27 37
620 27 37
621 27 37
622 27 37
623 -12 39
624 -12 39
625 -12 39
626 -12 39
627 -43 -30
628 -43 -30
629 -43 -30
630 -3 0
631 -3 0
632 -3 0
633 -3 0
634 -3 0
635 -3 0
636 1 -18
637 1 -18
638 1 -18
639 1 -18
640 1 -18
641 1 -18
642 1 -18
643 -41 -32
644 -41 -32
645 -16 -50
646 -16 -50
647 -16 -50
648 -16 -50
649 -28 -7
650 -28 -7
651 -28 -7
652 -28 -7
653 -28 -7
654 -28 -7
655 -28 -7
656 5 -27
657 5 -27
658 5 -27
659 5 -27
660 5 -27
661 5 -27
662 -25 -2
663 -25 -2
664 -25 -2
665 -2 39
666 -2 39
667 -2 39
668 -2 39
669 -2 39
670 32 26
671 32 26
672 32 26
673 32 26
674 32 26
675 -29 -25
676 -29 -25
677 -29 -25
678 -29 -25
679 9 -5
680 9 -5
681 9 -5
682 9 -5
683 34 -35
684 34 -35
685 34 -35
686 34 -35
687 34 -35
688 34 -35
689 33 -49
690 33 -49
691 33 -49
692 33 -49
693 -10 -8
694 -10 -8
695 -10 -8
696 -10 -8
697 18 41
698 18 41
699 18 41
700 18 41
701 18 41
702 18 41
703 7 37
704 7 37
705 7 37
706 7 37
707 7 37
708 -7 -30
709 -7 -30
710 -7 -30
711 -7 -30
712 -24 -38
713 -24 -38
714 -24 -38
715 48 -14
716 48 -14
717 48 -14
718 48 -14
719 48 -14
720 48 -14
721 -5 -6
722 -5 -6
723 -5 -6
724 -5 -6
725 -5 -6
726 -5 -6
727 -5 -6
728 24 42
729 24 42
730 24 42
731 -45 0
732 -45 0
733 -45 0
734 -45 0
735 -45 0
736 33 21
737 33 21
738 33 21
739 33 21
740 33 21
741 33 21
742 -6 31
743 -6 31
744 -6 31
745 -6 31
746 -6 31
747 -6 31
748 -6 31
749 -25 3
750 -25 3
751 -25 3
752 -25 3
753 -25 3
754 -25 3
755 -44 -16
756 -44 -16
757 -49 -1
758 -49 -1
759 -49 -1
760 39 -20
761 39 -20
762 39 -20
763 39 -20
764 30 25
765 -25 -43
766 -25 -43
767 13 26
768 13 26
769 13 26
770 13 26
771 38 -22
772 38 -22
773 38 -22
774 -28 21
775 -28 21
776 -28 21
777 -28 21
778 -28 21
779 -28 21
780 -28 21
781 -47 47
782 -47 47
783 -47 47
784 -47 47
785 -47 47
786 -47 47
787 -47 47
788 -47 47
789 11 3
790 11 3
791 11 3
792 11 3
793 11 3
794 17 10
795 17 10
796 17 10
797 17 10
798 17 10
799 17 10
800 -8 16
801 -8 16
802 -8 16
803 -8 16
804 -8 16
805 -8 16
806 -7 11
807 -7 11
808 -7 11
809 -7 11
810 -7 11
811 -7 11
812 13 -47
813 13 -47
814 13 -47
815 13 -47
816 36 3
817 36 3
818 36 3
819 36 3
820 -48 33
821 -48 33
822 -48 33
823 -48 33
824 -48 33
825 -48 33
826 -34 -16
827 -34 -16
828 -34 -16
829 -34 -16
830 -34 -16
831 -34 -16
832 -9 29
833 -9 29
834 -9 29
835 -9 29
836 -17 10
837 -17 10
838 -17 10
839 -32 16
840 -32 16
841 -32 16
842 -32 16
843 -32 16
844 -32 16
845 -44 29
846 -44 29
847 -44 29
848 -44 29
849 -44 29
850 -44 29
851 -17 -47
852 -17 -47
853 -17 -47
854 -17 -47
855 -17 -47
856 -17 -47
857 -12 11
858 -12 11
859 -12 11
860 -12 11
861 -12 11
862 -12 11
863 38 -41
864 38 -41
865 38 -41
866 38 -41
867 38 -41
868 7 43
869 7 43
870 7 43
871 7 43
872 -10 44
873 -10 44
874 -42 -39
875 -42 -39
876 -42 -39
877 -42 -39
878 -42 -39
879 -42 -39
880 -2 -42
881 -2 -42
882 -2 -42
883 -2 -42
884 -2 -42
885 -2 -42
886 -21 34
887 -21 34
888 -16 9
889 -16 9
890 0 34
891 0 34
892 0 34
893 0 34
894 0 34
895 28 44
896 28 44
897 28 44
898 28 44
899 40 -11
900 40 -11
901 40 -11
902 40 -11
903 40 -11
904 40 -11
905 40 -11
906 -32 -40
907 -32 -40
908 -32 -40
909 -32 -40
910 -32 -40
911 -22 42
912 -22 42
913 -22 42
914 -22 42
915 -22 42
916 -22 42
917 -22 42
918 -22 42
919 5 12
920 5 12
921 5 12
922 5 12
923 5 12
924 5 12
925 -16 -23
926 -16 -23
927 -16 -23
928 -16 -23
929 -16 -23
930 -21 -16
931 -21 -16
932 30 10
933 30 10
934 30 10
935 30 10
936 30 10
937 30 10
938 -20 20
939 -20 20
940 -20 20
941 -20 20
942 -20 20
DEMAND_SECTION
1 0
2 200
3 20
4 20
5 20
6 20
7 10
8 400
9 400
10 20
11 20
12 20
13 10
14 400
15 200
16 10
17 200
18 100
19 200
20 20
21 20
22 10
23 400
24 100
25 20
26 20
27 20
28 10
29 400
30 200
31 100
32 20
33 20
34 20
35 20
36 10
37 400
38 200
39 10
40 200
41 20
42 20
43 20
44 10
45 400
46 100
47 20
48 10
49 400
50 200
51 20
52 10
53 400
54 400
55 20
56 20
57 20
58 20
59 10
60 200
61 20
62 20
63 10
64 400
65 200
66 100
67 20
68 20
69 20
70 20
71 10
72 200
73 100
74 20
75 20
76 400
77 400
78 100
79 20
80 20
81 20
82 20
83 10
84 400
85 10
86 400
87 400
88 100
89 20
90 20
91 400
92 400
93 20
94 20
95 20
96 200
97 100
98 400
99 200
100 100
101 20
102 20
103 20
104 20
105 10
106 400
107 200
108 20
109 10
110 400
111 100
112 400
113 400
114 100
115 20
116 20
117 20
118 10
119 200
120 100
121 200
122 100
123 20
124 10
125 400
126 100
127 20
128 20
129 20
130 400
131 400
132 100
133 20
134 20
135 20
136 20
137 10
138 400
139 400
140 10
141 400
142 100
143 20
144 10
145 400
146 200
147 100
148 20
149 20
150 20
151 20
152 200
153 20
154 20
155 20
156 10
157 200
158 100
159 20
160 10
161 200
162 100
163 400
164 100
165 20
166 20
167 20
168 400
169 20
170 20
171 20
172 10
173 400
174 200
175 100
176 20
177 20
178 20
179 20
180 10
181 400
182 200
183 100
184 400
185 200
186 100
187 20
188 20
189 20
190 20
191 10
192 400
193 400
194 400
195 200
196 20
197 20
198 20
199 20
200 10
201 400
202 200
203 20
204 20
205 20
206 200
207 100
208 10
209 400
210 400
211 100
212 20
213 20
214 20
215 20
216 400
217 400
218 20
219 20
220 20
221 10
222 400
223 400
224 20
225 20
226 20
227 400
228 200
229 200
230 100
231 20
232 20
233 400
234 400
235 20
236 20
237 10
238 400
239 200
240 20
241 200
242 100
243 20
244 20
245 20
246 10
247 400
248 100
249 20
250 20
251 20
252 200
253 100
254 400
255 200
256 100
257 200
258 100
259 10
260 400
261 200
262 20
263 20
264 20
265 10
266 200
267 100
268 20
269 20
270 10
271 400
272 200
273 10
274 400
275 200
276 100
277 20
278 20
279 20
280 400
281 200
282 100
283 20
284 400
285 400
286 10
287 400
288 400
289 100
290 20
291 20
292 20
293 10
294 200
295 100
296 20
297 20
298 20
299 20
300 400
301 400
302 100
303 20
304 20
305 20
306 20
307 10
308 400
309 400
310 20
311 20
312 20
313 20
314 10
315 400
316 400
317 100
318 20
319 20
320 20
321 10
322 400
323 100
324 20
325 20
326 20
327 10
328 400
329 200
330 100
331 20
332 10
333 400
334 400
335 200
336 400
337 200
338 20
339 10
340 400
341 100
342 20
343 20
344 20
345 20
346 400
347 400
348 100
349 20
350 20
351 20
352 20
353 400
354 400
355 20
356 10
357 400
358 200
359 100
360 20
361 20
362 400
363 100
364 20
365 20
366 20
367 400
368 400
369 10
370 400
371 200
372 100
373 20
374 20
375 20
376 20
377 10
378 400
379 400
380 20
381 20
382 20
383 20
384 10
385 400
386 20
387 20
388 20
389 20
390 10
391 400
392 400
393 20
394 10
395 400
396 200
397 20
398 20
399 20
400 10
401 400
402 20
403 400
404 200
405 20
406 10
407 400
408 200
409 100
410 20
411 400
412 100
413 20
414 20
415 20
416 20
417 400
418 400
419 100
420 20
421 20
422 20
423 400
424 100
425 20
426 200
427 100
428 20
429 20
430 20
431 10
432 400
433 200
434 10
435 400
436 400
437 20
438 20
439 20
440 20
441 400
442 400
443 100
444 20
445 20
446 400
447 200
448 20
449 20
450 400
451 200
452 100
453 10
454 400
455 100
456 20
457 20
458 20
459 20
460 400
461 400
462 100
463 20
464 20
465 10
466 200
467 100
468 20
469 20
470 10
471 400
472 200
473 400
474 100
475 20
476 20
477 400
478 400
479 100
480 20
481 400
482 400
483 20
484 400
485 200
486 20
487 20
488 20
489 200
490 100
491 400
492 400
493 200
494 200
495 100
496 20
497 20
498 10
499 200
500 100
501 20
502 20
503 20
504 20
505 10
506 400
507 400
508 100
509 20
510 10
511 400
512 100
513 10
514 400
515 400
516 100
517 20
518 20
519 10
520 400
521 20
522 20
523 20
524 10
525 200
526 100
527 20
528 20
529 20
530 20
531 10
532 400
533 200
534 100
535 20
536 20
537 20
538 20
539 400
540 20
541 400
542 200
543 100
544 20
545 10
546 400
547 200
548 100
549 20
550 20
551 20
552 20
553 10
554 400
555 400
556 200
557 400
558 100
559 20
560 400
561 200
562 20
563 20
564 20
565 20
566 10
567 200
568 100
569 400
570 200
571 20
572 20
573 20
574 10
575 400
576 100
577 20
578 20
579 400
580 10
581 200
582 100
583 20
584 20
585 20
586 400
587 200
588 400
589 400
590 100
591 20
592 400
593 400
594 100
595 10
596 400
597 400
598 100
599 10
600 400
601 400
602 20
603 20
604 20
605 20
606 200
607 100
608 400
609 400
610 100
611 200
612 20
613 20
614 10
615 400
616 400
617 200
618 400
619 200
620 20
621 20
622 20
623 400
624 400
625 20
626 10
627 400
628 100
629 20
630 200
631 20
632 20
633 20
634 20
635 10
636 400
637 400
638 20
639 20
640 20
641 20
642 10
643 400
644 100
645 200
646 20
647 20
648 20
649 200
650 100
651 20
652 20
653 20
654 20
655 10
656 200
657 100
658 20
659 20
660 20
661 10
662 400
663 20
664 10
665 400
666 400
667 100
668 20
669 10
670 400
671 20
672 20
673 20
674 10
675 400
676 400
677 20
678 10
679 400
680 20
681 20
682 10
683 200
684 20
685 20
686 20
687 20
688 10
689 400
690 100
691 20
692 10
693 200
694 100
695 20
696 20
697 200
698 100
699 20
700 20
701 20
702 10
703 400
704 200
705 100
706 20
707 20
708 400
709 200
710 20
711 10
712 400
713 400
714 10
715 400
716 200
717 20
718 20
719 20
720 10
721 400
722 400
723 100
724 20
725 20
726 20
727 20
728 400
729 400
730 20
731 200
732 100
733 20
734 20
735 10
736 400
737 400
738 100
739 20
740 20
741 10
742 400
743 100
744 20
745 20
746 20
747 20
748 10
749 200
750 100
751 20
752 20
753 20
754 20
755 400
756 10
757 400
758 400
759 10
760 200
761 20
762 20
763 10
764 400
765 400
766 10
767 200
768 100
769 20
770 10
771 200
772 100
773 20
774 400
775 400
776 100
777 20
778 20
779 20
780 20
781 400
782 200
783 100
784 20
785 20
786 20
787 20
788 10
789 400
790 100
791 20
792 20
793 20
794 400
795 200
796 20
797 20
798 20
799 10
800 400
801 200
802 20
803 20
804 20
805 10
806 400
807 400
808 20
809 20
810 20
811 10
812 400
813 200
814 100
815 20
816 400
817 400
818 20
819 10
820 200
821 100
822 20
823 20
824 20
825 10
826 400
827 100
828 20
829 20
830 20
831 10
832 400
833 200
834 20
835 10
836 400
837 100
838 20
839 400
840 100
841 20
842 20
843 20
844 20
845 400
846 400
847 20
848 20
849 20
850 20
851 400
852 100
853 20
854 20
855 20
856 10
857 400
858 200
859 100
860 20
861 20
862 20
863 400
864 400
865 20
866 20
867 10
868 400
869 20
870 20
871 10
872 400
873 200
874 400
875 200
876 100
877 20
878 20
879 20
880 400
881 400
882 100
883 20
884 20
885 20
886 400
887 400
888 400
889 100
890 200
891 100
892 20
893 20
894 20
895 200
896 100
897 20
898 20
899 400
900 400
901 100
902 20
903 20
904 20
905 20
906 400
907 20
908 20
909 20
910 10
911 400
912 200
913 100
914 20
915 20
916 20
917 20
918 10
919 200
920 100
921 20
922 20
923 20
924 20
925 200
926 100
927 20
928 20
929 20
930 400
931 10
932 400
933 20
934 20
935 20
936 20
937 10
938 400
939 20
940 20
941 20
942 10
DEPOT_SECTION
1
-1
EOF