SDVRP instances/custom_instances/p10_24_splitx10_0.sol
941 -14 360 617 618 620 621 619 210 212 209 208 214 213 211 499 501 503 -18 21 20 283 285 284 464 461 459 462 463 460 -25 24 26 27 22 23 143 142 141 140 258 257 256 251 252 179 178 177 175 173 176 -36 794 793 492 490 491 -56 53 55 54 129 131 130 136 134 135 132 133 576 577 574 575 -57 58 52 382 378 377 383 381 379 380 316 318 282 193 196 281 199 -83 805 806 416 417 -84 164 163 162 941 938 939 940 937 778 777 774 842 838 840 839 841 -88 85 87 86 694 692 693 695 328 330 331 327 329 -89 533 536 537 227 226 353 352 929 930 -94 118 579 578 587 589 590 588 71 74 73 72 552 549 291 292 290 -95 96 542 540 541 543 544 604 600 602 603 601 599 -107 108 106 105 820 823 819 821 822 824 265 269 266 268 267 239 237 238 594 -109 128 125 126 124 127 149 147 150 144 146 145 148 526 524 843 -116 117 115 112 111 113 114 900 901 899 904 902 898 903 -119 168 170 169 171 167 781 782 786 783 784 780 785 787 335 338 336 337 -137 139 138 42 40 41 43 39 753 749 751 750 748 752 538 539 418 420 -155 151 153 154 152 688 690 691 689 866 863 862 864 865 683 686 687 684 685 682 -174 172 771 770 772 759 761 760 762 309 311 308 307 313 310 312 -187 188 190 183 189 185 184 186 367 368 366 333 -192 191 569 572 568 571 573 570 936 934 931 933 935 932 -195 280 198 197 279 194 556 557 558 334 332 -202 200 718 715 714 716 717 719 586 585 606 605 -204 203 201 82 78 77 81 80 76 79 75 450 451 452 449 -217 218 62 60 61 59 812 811 814 813 324 325 326 321 322 323 400 401 -222 225 224 223 221 220 219 216 215 660 655 656 -228 242 244 241 240 792 788 790 791 554 553 555 -230 158 431 432 433 867 868 869 870 404 403 405 402 889 -231 229 918 922 919 923 921 920 259 260 264 488 489 414 415 411 412 410 413 -232 882 883 884 879 881 880 295 294 253 255 657 -234 236 235 233 482 480 481 707 708 -245 243 15 13 160 161 46 45 47 44 356 357 358 359 -263 261 262 16 17 443 440 442 444 441 522 519 520 521 523 701 696 -275 828 830 829 827 826 825 755 754 757 758 756 733 734 732 -276 274 278 277 273 721 725 720 722 445 448 -288 289 286 287 807 808 810 809 801 804 802 803 800 799 566 567 -293 296 297 298 343 344 342 339 340 341 477 478 476 479 254 658 659 -306 302 304 305 300 301 299 303 595 597 596 598 -348 346 349 350 345 347 351 408 407 409 406 613 612 610 611 -354 355 677 676 675 19 874 877 873 875 876 878 909 908 905 907 906 924 927 723 724 726 -372 376 623 624 517 515 514 513 518 516 915 910 917 912 913 916 914 -374 625 622 871 872 509 508 505 507 506 458 455 -421 419 399 396 395 394 398 397 485 486 484 487 483 122 120 121 123 731 730 -424 422 423 435 434 437 439 470 471 -429 427 430 428 425 426 12 8 11 10 9 7 551 545 547 548 550 546 -436 438 744 741 745 747 742 743 746 369 375 373 371 370 831 834 832 833 -446 447 320 315 317 314 319 639 637 641 638 636 640 635 -493 494 496 497 495 388 384 385 386 389 387 653 649 650 648 652 651 654 661 663 662 632 629 634 633 631 630 -498 362 361 363 364 365 101 103 97 104 99 98 100 102 669 673 670 671 -500 504 502 763 672 609 608 607 2 6 1 5 3 4 894 897 895 896 -528 527 525 530 529 391 392 393 390 849 844 848 845 846 847 110 779 -534 535 532 531 926 925 928 712 711 713 765 764 -563 560 564 562 559 565 561 34 29 31 28 30 35 33 32 679 678 680 681 -616 615 614 729 727 728 698 700 697 699 -627 628 626 474 472 475 473 643 642 674 -667 668 666 665 664 456 454 583 453 580 581 457 584 582 892 890 893 891 -706 705 704 703 702 157 159 156 270 271 272 768 769 767 766 -709 710 206 205 207 63 66 64 69 70 68 67 65 646 644 645 647 853 852 855 851 850 854 -737 740 738 736 735 739 180 181 182 796 795 38 37 789 -797 798 49 51 50 48 511 512 510 815 816 818 817 -857 861 856 466 467 468 465 469 836 837 835 888 887 -858 860 859 165 166 773 776 775 591 592 593 885 -886 90 92 93 91 248 247 249 250 246 911 0 





OBJ=
5293.293
BEST_KNOWN=
0.000